problems/csplib-prob056/sonet-models/noch/O2/lingeling/model_3_1-s3ring11-solution000001.eprime-solution
language ESSENCE' 1.0

letting network_ExplicitWithFlagsR5_Flags be [1, 1, 2, 1, 2, 0, 0; int(1..7)]
letting network_ExplicitWithFlagsR5_Values_ExplicitVarSizeWithMarker_Marker be [4, 4, 5, 5, 5, 0, 0; int(1..7)]
letting network_ExplicitWithFlagsR5_Values_ExplicitVarSizeWithMarker_Values be
        [[1, 3, 7, 13, 1; int(1..5)], [2, 6, 10, 13, 1; int(1..5)], [3, 5, 6, 8, 9; int(1..5)],
         [4, 5, 10, 11, 12; int(1..5)], [7, 9, 10, 12, 13; int(1..5)], [1, 1, 1, 1, 1; int(1..5)],
         [1, 1, 1, 1, 1; int(1..5)]; int(1..7)]
